n_res = 2;
rcap = [41, 34];
rtype = [1, 1];
n_tasks = 16;
modes = [ {1, 2, 3}, {4, 5, 6}, {7, 8, 9}, {10, 11, 12}, {13, 14, 15}, {16, 17, 18}, {19, 20, 21}, {22, 23, 24}, {25, 26, 27}, {28, 29, 30}, {31, 32, 33}, {34, 35, 36}, {37, 38, 39}, {40, 41, 42}, {43, 44, 45}, {46, 47, 48} ];
succ = [ {5, 8, 9}, {4, 13}, {11, 14, 16}, {7, 10}, {6, 7, 13}, {12, 14}, {11, 12, 14}, {13}, {10}, {11, 12}, {15}, {15, 16}, {15, 16}, {}, {}, {} ];
n_opt = 48;
dur = [1, 6, 10, 1, 2, 3, 7, 9, 10, 5, 6, 9, 3, 5, 6, 6, 8, 10, 3, 8, 9, 1, 9, 10, 8, 8, 10, 1, 9, 10, 8, 8, 8, 5, 8, 10, 1, 3, 4, 2, 3, 10, 2, 6, 10, 2, 8, 9];
rreq = [|  5,  4,  3,  5,  4,  1,  8,  8,  8,  8,  6,  4,  8,  7,  7, 10,  9,  9,  8,  6,  2,  6,  5,  5,  6,  8,  4,  8,  6,  6,  5, 10,  4,  4,  3,  2,  7,  5,  1, 10,  7,  4,  5,  2,  1, 10,  9,  8
        |  9,  8,  6, 10,  7,  4,  9,  7,  1,  4,  3,  1,  4,  2,  1,  9,  7,  4,  8,  5,  3,  8,  7,  5,  7,  6,  4,  7,  7,  5,  8,  6,  9,  4,  3,  3,  5,  5,  4,  2,  2,  2,  7,  6,  5,  2,  2,  1 |];
